<number of tasks>
20

<cycle time>
1000

<order strength>
0,211


<task times>
1 138
2 42
3 182
4 111
5 123
6 190
7 223
8 57
9 236
10 127
11 275
12 202
13 56
14 61
15 68
16 211
17 102
18 133
19 289
20 79

<precedence relations>
2,8
4,5
4,6
4,7
5,10
5,11
7,12
8,9
9,14
10,15
11,16
12,13
13,17
13,18
14,20
15,19

<end>
